p edge 40 302
e 1 4
e 1 6
e 1 8
e 1 9
e 1 15
e 1 16
e 1 18
e 1 20
e 1 23
e 1 24
e 1 27
e 1 28
e 1 31
e 1 33
e 1 35
e 1 40
e 2 4
e 2 7
e 2 9
e 2 10
e 2 12
e 2 13
e 2 16
e 2 31
e 2 33
e 2 34
e 2 38
e 2 40
e 3 5
e 3 7
e 3 8
e 3 9
e 3 10
e 3 11
e 3 16
e 3 19
e 3 24
e 3 26
e 3 28
e 3 35
e 3 36
e 3 37
e 3 38
e 3 40
e 4 5
e 4 6
e 4 7
e 4 12
e 4 14
e 4 15
e 4 17
e 4 20
e 4 21
e 4 22
e 4 23
e 4 25
e 4 27
e 4 29
e 4 30
e 4 35
e 4 36
e 5 8
e 5 10
e 5 11
e 5 14
e 5 15
e 5 21
e 5 23
e 5 27
e 5 33
e 5 36
e 5 40
e 6 7
e 6 10
e 6 11
e 6 13
e 6 17
e 6 23
e 6 29
e 6 30
e 6 31
e 6 32
e 6 34
e 6 38
e 6 40
e 7 9
e 7 10
e 7 11
e 7 21
e 7 23
e 7 24
e 7 27
e 7 28
e 7 29
e 7 31
e 7 33
e 7 34
e 7 35
e 7 40
e 8 9
e 8 11
e 8 12
e 8 14
e 8 15
e 8 17
e 8 21
e 8 25
e 8 29
e 8 30
e 8 31
e 8 34
e 8 37
e 8 39
e 9 14
e 9 18
e 9 19
e 9 20
e 9 23
e 9 26
e 9 27
e 9 31
e 9 36
e 9 37
e 9 38
e 10 11
e 10 13
e 10 17
e 10 18
e 10 19
e 10 20
e 10 23
e 10 24
e 10 26
e 10 29
e 10 30
e 10 32
e 10 35
e 10 37
e 11 14
e 11 21
e 11 23
e 11 24
e 11 26
e 11 28
e 11 29
e 11 31
e 11 33
e 11 35
e 11 36
e 11 38
e 11 40
e 12 18
e 12 19
e 12 25
e 12 36
e 12 37
e 12 38
e 12 39
e 13 17
e 13 21
e 13 23
e 13 25
e 13 27
e 13 28
e 13 35
e 13 36
e 13 38
e 14 30
e 14 34
e 14 35
e 14 36
e 14 37
e 15 21
e 15 22
e 15 31
e 15 33
e 15 34
e 15 36
e 15 37
e 16 20
e 16 25
e 16 27
e 16 29
e 16 30
e 16 32
e 16 35
e 16 36
e 16 40
e 17 18
e 17 19
e 17 25
e 17 26
e 17 35
e 17 37
e 18 19
e 18 20
e 18 22
e 18 23
e 18 24
e 18 31
e 18 32
e 18 34
e 18 35
e 18 36
e 18 40
e 19 21
e 19 23
e 19 24
e 19 26
e 19 27
e 19 30
e 19 31
e 19 35
e 19 37
e 19 38
e 19 40
e 20 21
e 20 23
e 20 24
e 20 25
e 20 27
e 20 29
e 20 30
e 21 22
e 21 23
e 21 26
e 21 27
e 21 30
e 21 31
e 21 34
e 21 35
e 21 36
e 21 37
e 21 39
e 22 24
e 22 26
e 22 30
e 22 35
e 22 36
e 22 38
e 23 26
e 23 27
e 23 30
e 23 32
e 23 33
e 23 36
e 23 37
e 23 39
e 23 40
e 24 25
e 24 29
e 24 33
e 24 35
e 24 39
e 24 40
e 25 29
e 25 30
e 25 32
e 25 34
e 25 36
e 25 37
e 25 40
e 26 28
e 26 31
e 26 32
e 26 34
e 26 36
e 26 38
e 27 28
e 27 32
e 27 34
e 27 35
e 27 36
e 28 30
e 28 31
e 28 34
e 28 35
e 28 36
e 28 38
e 28 39
e 28 40
e 29 33
e 29 36
e 30 32
e 30 34
e 30 36
e 30 38
e 30 40
e 31 33
e 31 39
e 32 33
e 32 34
e 32 38
e 32 39
e 33 35
e 33 36
e 34 36
e 34 39
e 35 39
e 35 40
e 36 39
e 38 40